SPARKNaCl/why3-cvc5/sparknacl-cryptobox.ads_62_28_range_check3_1.smt2
;; produced by cvc5.drv ;;
(set-logic ALL)
(set-info :smt-lib-version 2.6)
;;; generated by SMT-LIB2 driver
;;; SMT-LIB2 driver: bit-vectors, common part
;;; SMT-LIB2: integer arithmetic
;; "pow2"
(declare-fun pow2 (Int) Int)

(declare-const two_power_size_minus_one Int)

;; "two_power_size_minus_one_val"
(assert (= two_power_size_minus_one (pow2 (- 8 1))))

;; "min"
(define-fun min ((x Int) (y Int)) Int
  (ite (<= x y) x y))

;; "max"
(define-fun max ((x Int) (y Int)) Int
  (ite (<= x y) y x))

;; "Min_r"
(assert (forall ((x Int) (y Int)) (=> (<= y x) (= (min x y) y))))

;; "Max_l"
(assert (forall ((x Int) (y Int)) (=> (<= y x) (= (max x y) x))))

;; "Min_comm"
(assert (forall ((x Int) (y Int)) (= (min x y) (min y x))))

;; "Max_comm"
(assert (forall ((x Int) (y Int)) (= (max x y) (max y x))))

;; "Min_assoc"
(assert
  (forall ((x Int) (y Int) (z Int)) (= (min (min x y) z) (min x (min y z)))))

;; "Max_assoc"
(assert
  (forall ((x Int) (y Int) (z Int)) (= (max (max x y) z) (max x (max y z)))))

(declare-sort byte 0)

;; "to_rep"
(declare-fun to_rep (byte) (_ BitVec 8))

;; "of_rep"
(declare-fun of_rep ((_ BitVec 8)) byte)

;; "inversion_axiom"
(assert
  (forall ((x byte)) (! (= (of_rep (to_rep x)) x) :pattern ((to_rep x)) )))

;; "range_axiom"
(assert true)

;; "coerce_axiom"
(assert
  (forall ((x (_ BitVec 8)))
    (! (= (to_rep (of_rep x)) x) :pattern ((to_rep (of_rep x))) )))

(declare-sort map1 0)

;; "has_bounds"
(declare-fun has_bounds (map1
  Int
  Int) Bool)

;; "get"
(declare-fun get (map1
  Int) byte)

(declare-sort tinteger_32B 0)

;; "tinteger_32B'int"
(declare-fun tinteger_32Bqtint (tinteger_32B) Int)

;; "tinteger_32B'axiom"
(assert
  (forall ((i tinteger_32B))
    (and
      (<= (- 2147483648) (tinteger_32Bqtint i))
      (<= (tinteger_32Bqtint i) 2147483647))))

;; "in_range"
(define-fun in_range ((x Int)) Bool
  (and (<= (- 2147483648) x) (<= x 2147483647)))

(declare-const c__first tinteger_32B)

(declare-const c__last tinteger_32B)

;; "to_rep"
(define-fun to_rep1 ((x tinteger_32B)) Int
  (tinteger_32Bqtint x))

;; "of_rep"
(declare-fun of_rep1 (Int) tinteger_32B)

;; "inversion_axiom"
(assert
  (forall ((x tinteger_32B))
    (! (= (of_rep1 (to_rep1 x)) x) :pattern ((to_rep1 x)) )))

;; "range_axiom"
(assert
  (forall ((x tinteger_32B))
    (! (in_range (to_rep1 x)) :pattern ((to_rep1 x)) )))

;; "coerce_axiom"
(assert
  (forall ((x Int))
    (! (=> (in_range x) (= (to_rep1 (of_rep1 x)) x)) :pattern ((to_rep1
                                                                 (of_rep1 x))) )))

;; "in_range"
(define-fun in_range1 ((x Int)) Bool
  (and (<= 0 x) (<= x 2147483647)))

(declare-datatypes ((t 0))
  (((tqtmk (rec__first tinteger_32B)(rec__last tinteger_32B)))))

;; "mk"
(declare-fun mk (Int
  Int) t)

;; "mk_def"
(assert
  (forall ((f Int) (l Int))
    (! (=>
         (in_range f)
         (=>
           (in_range l)
           (and
             (= (to_rep1 (rec__first (mk f l))) f)
             (= (to_rep1 (rec__last (mk f l))) l)))) :pattern ((mk f l)) )))

;; "dynamic_property"
(define-fun dynamic_property ((range_first Int) (range_last Int) (low Int) (high Int)) Bool
  (and
    (in_range low)
    (and
      (in_range high)
      (=> (<= low high) (and (in_range1 low) (in_range1 high))))))

(declare-datatypes ((us_t 0))
  (((us_tqtmk (elts map1)(rt t)))))

;; "of_array"
(define-fun of_array ((a map1) (f Int) (l Int)) us_t
  (us_tqtmk a (mk f l)))

;; "first"
(define-fun first ((a us_t)) Int
  (to_rep1 (rec__first (rt a))))

;; "last"
(define-fun last ((a us_t)) Int
  (to_rep1 (rec__last (rt a))))

;; "length"
(define-fun length ((a us_t)) Int
  (ite (<= (first a) (last a)) (+ (- (last a) (first a)) 1) 0))

;; "well_formed"
(define-fun well_formed ((a us_t)) Bool
  (has_bounds
    (elts a)
    (to_rep1 (rec__first (rt a)))
    (to_rep1 (rec__last (rt a)))))

(declare-const m us_t)

(declare-const n map1)

(declare-const zero_bytes_32 map1)

(declare-const zero_bytes_16 map1)

;; "dynamic_invariant"
(define-fun dynamic_invariant ((temp___expr_249 us_t) (temp___is_init_245 Bool) (temp___skip_constant_246 Bool) (temp___do_toplevel_247 Bool) (temp___do_typ_inv_248 Bool)) Bool
  (and
    (=>
      (not (= temp___skip_constant_246 true))
      (dynamic_property
        0
        2147483647
        (first temp___expr_249)
        (last temp___expr_249)))
    (well_formed temp___expr_249)))

;; "sparknacl__zero_bytes_32__aggregate_def"
(declare-fun sparknacl__zero_bytes_32__aggregate_def ((_ BitVec 8)) map1)

;; "sparknacl__zero_bytes_16__aggregate_def"
(declare-fun sparknacl__zero_bytes_16__aggregate_def ((_ BitVec 8)) map1)

;; "zero_bytes_32__def_axiom"
(assert
  (= zero_bytes_32 (let ((temp___178qtunused (sparknacl__zero_bytes_32__aggregate_def
                                               #x00)))
                     (sparknacl__zero_bytes_32__aggregate_def #x00))))

;; "def_axiom"
(assert
  (forall ((temp___174 (_ BitVec 8)))
    (let ((temp___175 (sparknacl__zero_bytes_32__aggregate_def temp___174)))
      (and
        (has_bounds temp___175 0 31)
        (forall ((temp___176 Int))
          (! (=>
               (and (<= 0 temp___176) (<= temp___176 31))
               (= (to_rep (get temp___175 temp___176)) temp___174)) :pattern (
          (get
            temp___175
            temp___176)) ))))))

;; "zero_bytes_16__def_axiom"
(assert
  (= zero_bytes_16 (let ((temp___184qtunused (sparknacl__zero_bytes_16__aggregate_def
                                               #x00)))
                     (sparknacl__zero_bytes_16__aggregate_def #x00))))

;; "def_axiom"
(assert
  (forall ((temp___180 (_ BitVec 8)))
    (let ((temp___181 (sparknacl__zero_bytes_16__aggregate_def temp___180)))
      (and
        (has_bounds temp___181 0 15)
        (forall ((temp___182 Int))
          (! (=>
               (and (<= 0 temp___182) (<= temp___182 15))
               (= (to_rep (get temp___181 temp___182)) temp___180)) :pattern (
          (get
            temp___181
            temp___182)) ))))))

;; Goal "def'vc"
;; File "sparknacl-cryptobox.ads", line 52, characters 0-0
(assert
  (not
  (forall ((c map1))
    (=>
      (has_bounds zero_bytes_16 0 15)
      (forall ((temp___761 map1))
        (=>
          (and
            (and
              (has_bounds temp___761 0 15)
              (forall ((temp___183 Int))
                (! (=>
                     (and (<= 0 temp___183) (<= temp___183 15))
                     (= (to_rep (get temp___761 temp___183)) #x00)) :pattern (
                (get
                  temp___761
                  temp___183)) )))
            (= temp___761 (sparknacl__zero_bytes_16__aggregate_def #x00)))
          (=>
            (= temp___761 zero_bytes_16)
            (=>
              (has_bounds zero_bytes_32 0 31)
              (forall ((temp___766 map1))
                (=>
                  (and
                    (and
                      (has_bounds temp___766 0 31)
                      (forall ((temp___177 Int))
                        (! (=>
                             (and (<= 0 temp___177) (<= temp___177 31))
                             (= (to_rep (get temp___766 temp___177)) #x00)) :pattern (
                        (get
                          temp___766
                          temp___177)) )))
                    (= temp___766 (sparknacl__zero_bytes_32__aggregate_def
                                    #x00)))
                  (=>
                    (= temp___766 zero_bytes_32)
                    (=>
                      (and
                        (dynamic_property
                          0
                          2147483647
                          (to_rep1 c__first)
                          (to_rep1 c__last))
                        (well_formed
                          (of_array c (to_rep1 c__first) (to_rep1 c__last))))
                      (=>
                        (dynamic_invariant m true false true true)
                        (=>
                          (has_bounds n 0 23)
                          (forall ((o Int))
                            (=>
                              (= (to_rep1 c__last) o)
                              (forall ((o1 Int))
                                (=>
                                  (= (to_rep1 c__first) o1)
                                  (forall ((o2 Int))
                                    (=>
                                      (= (to_rep1 c__last) o2)
                                      (forall ((o3 Int))
                                        (=>
                                          (= (to_rep1 c__last) o3)
                                          (forall ((o4 Int))
                                            (=>
                                              (= (to_rep1 c__first) o4)
                                              (forall ((o5 Int))
                                                (=>
                                                  (= (to_rep1 c__first) o5)
                                                  (=>
                                                    (= (and (and (and 
                                                    (ite (= (first m) 0)
                                                      true
                                                      false) (ite (= o5 0)
                                                               true
                                                               false)) 
                                                    (ite (= o2 (last m))
                                                      true
                                                      false)) (ite (<= 32 
                                                                (length
                                                                  m))
                                                                true
                                                                false)) true)
                                                    (=>
                                                      (<= 0 31)
                                                      (<= (first m) 31)))))))))))))))))))))))))))))

(check-sat)
